param:	TIME:	Ts	Te:=
1	0   108
2	108   216
3	216   324
4	324   432
5	432   540
;
param:	NODE:	r	st	WS	WE:=
0	0	0	0	540
1	711	8	80	417
2	1440	16	40	375
3	1404	16	73	411
4	1053	12	47	380
5	2307	26	78	428
6	1053	12	55	390
7	804	9	18	352
8	1713	19	18	350
9	858	10	89	420
10	1686	19	41	375
;
param: VEHICLE:	Ch	Lh	Ph	ch:=
1	10000	150	2.2384e-005	2.66374
2	15000	200	1.79961e-005	2.66374
;
param q_real:=2;
param	nth:=9;
param	nth1:=10;
param:	ARC:	D:=
1	10	22.670000
1	7	22.709999
1	6	35.610001
1	2	63.240002
1	4	74.120003
1	9	97.849998
1	8	112.610001
1	3	115.589996
1	5	117.660004
2	7	42.750000
2	10	45.360001
2	1	63.209999
2	8	69.309998
2	5	74.349998
2	3	77.220001
2	9	92.610001
2	6	94.140999
2	4	115.519997
3	8	8.780000
3	5	8.790000
3	9	53.261002
3	2	76.779999
3	10	95.959999
3	7	96.540001
3	1	115.629997
3	4	121.750999
3	6	128.690002
4	6	46.320000
4	9	74.550003
4	1	74.750000
4	10	75.470001
4	7	79.419998
4	2	115.769997
4	3	122.080002
4	8	122.209999
4	5	127.400002
5	8	5.940000
5	3	9.000000
5	9	58.780998
5	2	73.830002
5	10	97.919998
5	7	98.500000
5	1	117.589996
5	4	127.041000
5	6	132.979996
6	1	35.290001
6	4	46.439999
6	10	51.330002
6	7	53.810001
6	9	91.200996
6	2	93.901001
6	8	127.309998
6	3	128.330002
6	5	132.740005
7	10	5.580000
7	1	22.400000
7	2	42.709999
7	6	54.000000
7	4	79.400002
7	9	86.459999
7	8	93.309998
7	3	96.290001
7	5	98.360001
8	5	5.730000
8	3	8.800000
8	9	54.480999
8	2	68.870003
8	10	92.889999
8	7	93.470001
8	1	112.559998
8	4	121.640999
8	6	127.500000
9	3	53.421001
9	8	54.650002
9	5	58.841000
9	4	74.011002
9	10	84.820000
9	7	87.419998
9	6	91.000999
9	2	92.589996
9	1	97.320000
10	7	6.210000
10	1	22.580000
10	2	44.669998
10	6	51.430000
10	4	75.470001
10	9	83.760002
10	8	92.830002
10	3	95.809998
10	5	97.879997
0	7	8.560000
0	10	13.450000
0	1	26.190001
0	2	39.860001
0	6	60.081001
0	4	87.269997
0	9	92.889999
0	8	93.660004
0	3	96.639999
0	5	98.709999
7	0	8.620000
10	0	14.140000
1	0	26.459999
2	0	39.759998
6	0	60.741001
4	0	87.419998
8	0	93.639999
9	0	93.949997
3	0	96.709999
5	0	98.669998
;
param:	v:=
1	10	1	76
1	10	2	34
1	10	3	28
1	10	4	59
1	10	5	98
1	7	1	94
1	7	2	51
1	7	3	19
1	7	4	33
1	7	5	92
1	6	1	89
1	6	2	58
1	6	3	20
1	6	4	48
1	6	5	87
1	2	1	71
1	2	2	47
1	2	3	20
1	2	4	42
1	2	5	89
1	4	1	96
1	4	2	42
1	4	3	22
1	4	4	55
1	4	5	84
1	9	1	77
1	9	2	56
1	9	3	29
1	9	4	39
1	9	5	78
1	8	1	81
1	8	2	50
1	8	3	14
1	8	4	40
1	8	5	93
1	3	1	89
1	3	2	59
1	3	3	24
1	3	4	60
1	3	5	71
1	5	1	97
1	5	2	48
1	5	3	29
1	5	4	51
1	5	5	84
2	7	1	72
2	7	2	51
2	7	3	28
2	7	4	30
2	7	5	73
2	10	1	91
2	10	2	46
2	10	3	23
2	10	4	32
2	10	5	89
2	1	1	94
2	1	2	44
2	1	3	20
2	1	4	38
2	1	5	70
2	8	1	98
2	8	2	33
2	8	3	26
2	8	4	44
2	8	5	99
2	5	1	74
2	5	2	32
2	5	3	11
2	5	4	55
2	5	5	74
2	3	1	100
2	3	2	50
2	3	3	18
2	3	4	55
2	3	5	94
2	9	1	87
2	9	2	38
2	9	3	29
2	9	4	41
2	9	5	77
2	6	1	84
2	6	2	51
2	6	3	10
2	6	4	56
2	6	5	82
2	4	1	97
2	4	2	56
2	4	3	15
2	4	4	33
2	4	5	71
3	8	1	75
3	8	2	47
3	8	3	29
3	8	4	47
3	8	5	88
3	5	1	76
3	5	2	37
3	5	3	17
3	5	4	30
3	5	5	91
3	9	1	100
3	9	2	52
3	9	3	10
3	9	4	42
3	9	5	77
3	2	1	87
3	2	2	47
3	2	3	18
3	2	4	38
3	2	5	76
3	10	1	71
3	10	2	58
3	10	3	30
3	10	4	45
3	10	5	90
3	7	1	85
3	7	2	41
3	7	3	14
3	7	4	59
3	7	5	99
3	1	1	78
3	1	2	41
3	1	3	19
3	1	4	34
3	1	5	75
3	4	1	85
3	4	2	31
3	4	3	19
3	4	4	46
3	4	5	76
3	6	1	73
3	6	2	42
3	6	3	17
3	6	4	51
3	6	5	95
4	6	1	89
4	6	2	45
4	6	3	18
4	6	4	30
4	6	5	94
4	9	1	97
4	9	2	42
4	9	3	16
4	9	4	57
4	9	5	72
4	1	1	73
4	1	2	52
4	1	3	27
4	1	4	40
4	1	5	91
4	10	1	94
4	10	2	40
4	10	3	12
4	10	4	54
4	10	5	79
4	7	1	97
4	7	2	44
4	7	3	30
4	7	4	41
4	7	5	95
4	2	1	96
4	2	2	52
4	2	3	14
4	2	4	49
4	2	5	82
4	3	1	95
4	3	2	56
4	3	3	22
4	3	4	58
4	3	5	87
4	8	1	83
4	8	2	34
4	8	3	27
4	8	4	48
4	8	5	70
4	5	1	89
4	5	2	42
4	5	3	26
4	5	4	42
4	5	5	80
5	8	1	97
5	8	2	59
5	8	3	23
5	8	4	40
5	8	5	79
5	3	1	71
5	3	2	39
5	3	3	10
5	3	4	52
5	3	5	89
5	9	1	82
5	9	2	56
5	9	3	25
5	9	4	54
5	9	5	70
5	2	1	80
5	2	2	43
5	2	3	26
5	2	4	42
5	2	5	74
5	10	1	83
5	10	2	32
5	10	3	11
5	10	4	53
5	10	5	90
5	7	1	91
5	7	2	47
5	7	3	29
5	7	4	36
5	7	5	85
5	1	1	84
5	1	2	33
5	1	3	27
5	1	4	55
5	1	5	96
5	4	1	73
5	4	2	48
5	4	3	17
5	4	4	57
5	4	5	100
5	6	1	91
5	6	2	30
5	6	3	22
5	6	4	34
5	6	5	88
6	1	1	81
6	1	2	43
6	1	3	24
6	1	4	53
6	1	5	99
6	4	1	82
6	4	2	37
6	4	3	14
6	4	4	58
6	4	5	98
6	10	1	90
6	10	2	59
6	10	3	12
6	10	4	35
6	10	5	74
6	7	1	73
6	7	2	56
6	7	3	30
6	7	4	58
6	7	5	93
6	9	1	100
6	9	2	34
6	9	3	28
6	9	4	51
6	9	5	87
6	2	1	75
6	2	2	45
6	2	3	10
6	2	4	42
6	2	5	73
6	8	1	90
6	8	2	32
6	8	3	27
6	8	4	58
6	8	5	81
6	3	1	98
6	3	2	48
6	3	3	12
6	3	4	35
6	3	5	77
6	5	1	98
6	5	2	42
6	5	3	12
6	5	4	43
6	5	5	96
7	10	1	83
7	10	2	31
7	10	3	23
7	10	4	55
7	10	5	89
7	1	1	87
7	1	2	45
7	1	3	15
7	1	4	31
7	1	5	86
7	2	1	74
7	2	2	50
7	2	3	10
7	2	4	59
7	2	5	92
7	6	1	91
7	6	2	30
7	6	3	22
7	6	4	44
7	6	5	84
7	4	1	80
7	4	2	39
7	4	3	14
7	4	4	52
7	4	5	98
7	9	1	74
7	9	2	39
7	9	3	24
7	9	4	44
7	9	5	90
7	8	1	89
7	8	2	42
7	8	3	18
7	8	4	30
7	8	5	84
7	3	1	95
7	3	2	36
7	3	3	26
7	3	4	58
7	3	5	74
7	5	1	84
7	5	2	45
7	5	3	29
7	5	4	57
7	5	5	91
8	5	1	70
8	5	2	31
8	5	3	27
8	5	4	53
8	5	5	77
8	3	1	80
8	3	2	39
8	3	3	15
8	3	4	56
8	3	5	70
8	9	1	87
8	9	2	57
8	9	3	29
8	9	4	30
8	9	5	92
8	2	1	99
8	2	2	50
8	2	3	19
8	2	4	58
8	2	5	85
8	10	1	84
8	10	2	41
8	10	3	12
8	10	4	45
8	10	5	87
8	7	1	82
8	7	2	51
8	7	3	22
8	7	4	40
8	7	5	96
8	1	1	85
8	1	2	32
8	1	3	24
8	1	4	45
8	1	5	89
8	4	1	96
8	4	2	46
8	4	3	11
8	4	4	48
8	4	5	95
8	6	1	75
8	6	2	55
8	6	3	30
8	6	4	34
8	6	5	96
9	3	1	80
9	3	2	30
9	3	3	27
9	3	4	47
9	3	5	81
9	8	1	96
9	8	2	39
9	8	3	29
9	8	4	59
9	8	5	98
9	5	1	94
9	5	2	48
9	5	3	19
9	5	4	58
9	5	5	91
9	4	1	92
9	4	2	55
9	4	3	13
9	4	4	50
9	4	5	77
9	10	1	87
9	10	2	50
9	10	3	15
9	10	4	37
9	10	5	71
9	7	1	83
9	7	2	49
9	7	3	27
9	7	4	41
9	7	5	83
9	6	1	86
9	6	2	47
9	6	3	15
9	6	4	35
9	6	5	95
9	2	1	85
9	2	2	56
9	2	3	29
9	2	4	47
9	2	5	77
9	1	1	70
9	1	2	56
9	1	3	28
9	1	4	51
9	1	5	88
10	7	1	90
10	7	2	48
10	7	3	19
10	7	4	52
10	7	5	97
10	1	1	91
10	1	2	59
10	1	3	10
10	1	4	34
10	1	5	70
10	2	1	72
10	2	2	48
10	2	3	13
10	2	4	31
10	2	5	76
10	6	1	93
10	6	2	54
10	6	3	22
10	6	4	57
10	6	5	77
10	4	1	83
10	4	2	53
10	4	3	18
10	4	4	47
10	4	5	86
10	9	1	88
10	9	2	34
10	9	3	22
10	9	4	30
10	9	5	77
10	8	1	79
10	8	2	46
10	8	3	29
10	8	4	55
10	8	5	90
10	3	1	73
10	3	2	41
10	3	3	22
10	3	4	54
10	3	5	92
10	5	1	77
10	5	2	36
10	5	3	11
10	5	4	54
10	5	5	89
0	7	1	98
0	7	2	39
0	7	3	24
0	7	4	55
0	7	5	84
0	10	1	83
0	10	2	50
0	10	3	15
0	10	4	54
0	10	5	98
0	1	1	83
0	1	2	35
0	1	3	26
0	1	4	32
0	1	5	71
0	2	1	94
0	2	2	44
0	2	3	26
0	2	4	55
0	2	5	70
0	6	1	99
0	6	2	40
0	6	3	19
0	6	4	32
0	6	5	90
0	4	1	82
0	4	2	35
0	4	3	10
0	4	4	46
0	4	5	76
0	9	1	83
0	9	2	53
0	9	3	21
0	9	4	35
0	9	5	98
0	8	1	83
0	8	2	51
0	8	3	15
0	8	4	45
0	8	5	89
0	3	1	78
0	3	2	58
0	3	3	21
0	3	4	50
0	3	5	73
0	5	1	90
0	5	2	36
0	5	3	14
0	5	4	47
0	5	5	99
7	0	1	99
7	0	2	31
7	0	3	10
7	0	4	43
7	0	5	95
10	0	1	95
10	0	2	45
10	0	3	21
10	0	4	32
10	0	5	72
1	0	1	77
1	0	2	60
1	0	3	18
1	0	4	44
1	0	5	95
2	0	1	94
2	0	2	48
2	0	3	19
2	0	4	48
2	0	5	73
6	0	1	100
6	0	2	39
6	0	3	12
6	0	4	33
6	0	5	82
4	0	1	81
4	0	2	41
4	0	3	10
4	0	4	49
4	0	5	73
8	0	1	94
8	0	2	54
8	0	3	15
8	0	4	33
8	0	5	70
9	0	1	93
9	0	2	31
9	0	3	18
9	0	4	51
9	0	5	79
3	0	1	92
3	0	2	37
3	0	3	19
3	0	4	47
3	0	5	90
5	0	1	87
5	0	2	31
5	0	3	17
5	0	4	55
5	0	5	74
;
param:	g:=
1	10	1	1	0.396426
1	10	1	2	0.700458
1	10	2	1	0.246131
1	10	2	2	0.288274
1	10	3	1	0.252324
1	10	3	2	0.302739
1	10	4	1	0.306076
1	10	4	2	0.427793
1	10	5	1	0.559473
1	10	5	2	1.264864
1	7	1	1	0.526181
1	7	1	2	1.144518
1	7	2	1	0.275847
1	7	2	2	0.348998
1	7	3	1	0.295088
1	7	3	2	0.364835
1	7	4	1	0.246353
1	7	4	2	0.289331
1	7	5	1	0.510132
1	7	5	2	1.087298
1	6	1	1	0.486811
1	6	1	2	1.005161
1	6	2	1	0.301833
1	6	2	2	0.416205
1	6	3	1	0.287219
1	6	3	2	0.355115
1	6	4	1	0.266846
1	6	4	2	0.327669
1	6	5	1	0.471770
1	6	5	2	0.952865
1	2	1	1	0.366437
1	2	1	2	0.605446
1	2	2	1	0.264155
1	2	2	2	0.321560
1	2	3	1	0.287219
1	2	3	2	0.355115
1	2	4	1	0.253223
1	2	4	2	0.298561
1	2	5	1	0.486811
1	2	5	2	1.005161
1	4	1	1	0.542629
1	4	1	2	1.203706
1	4	2	1	0.253223
1	4	2	2	0.298561
1	4	3	1	0.274382
1	4	3	2	0.338023
1	4	4	1	0.289880
1	4	4	2	0.384419
1	4	5	1	0.449973
1	4	5	2	0.878115
1	9	1	1	0.402749
1	9	1	2	0.720940
1	9	2	1	0.293733
1	9	2	2	0.394518
1	9	3	1	0.250401
1	9	3	2	0.298951
1	9	4	1	0.248895
1	9	4	2	0.290842
1	9	5	1	0.409180
1	9	5	2	0.741915
1	8	1	1	0.429105
1	8	1	2	0.807797
1	8	2	1	0.272696
1	8	2	2	0.341388
1	8	3	1	0.356456
1	8	3	2	0.428864
1	8	4	1	0.250135
1	8	4	2	0.292905
1	8	5	1	0.518107
1	8	5	2	1.115662
1	3	1	1	0.486811
1	3	1	2	1.005161
1	3	2	1	0.306076
1	3	2	2	0.427793
1	3	3	1	0.264683
1	3	3	2	0.323750
1	3	4	1	0.310446
1	3	4	2	0.439877
1	3	5	1	0.366437
1	3	5	2	0.605446
1	5	1	1	0.551002
1	5	1	2	1.234039
1	5	2	1	0.266846
1	5	2	2	0.327669
1	5	3	1	0.250401
1	5	3	2	0.298951
1	5	4	1	0.275847
1	5	4	2	0.348998
1	5	5	1	0.449973
1	5	5	2	0.878115
2	7	1	1	0.372215
2	7	1	2	0.623462
2	7	2	1	0.275847
2	7	2	2	0.348998
2	7	3	1	0.252324
2	7	3	2	0.302739
2	7	4	1	0.248870
2	7	4	2	0.295725
2	7	5	1	0.378104
2	7	5	2	0.641971
2	10	1	1	0.502258
2	10	1	2	1.059427
2	10	2	1	0.261626
2	10	2	2	0.315953
2	10	3	1	0.269185
2	10	3	2	0.330552
2	10	4	1	0.246870
2	10	4	2	0.290921
2	10	5	1	0.486811
2	10	5	2	1.005161
2	1	1	1	0.526181
2	1	1	2	1.144518
2	1	2	1	0.257070
2	1	2	2	0.306247
2	1	3	1	0.287219
2	1	3	2	0.355115
2	1	4	1	0.247870
2	1	4	2	0.289292
2	1	5	1	0.360770
2	1	5	2	0.587924
2	8	1	1	0.559473
2	8	1	2	1.264864
2	8	2	1	0.246353
2	8	2	2	0.289331
2	8	3	1	0.257483
2	8	3	2	0.312044
2	8	4	1	0.257070
2	8	4	2	0.306247
2	8	5	1	0.568043
2	8	5	2	1.296180
2	5	1	1	0.384103
2	5	1	2	0.660973
2	5	2	1	0.246870
2	5	2	2	0.290921
2	5	3	1	0.424417
2	5	3	2	0.487653
2	5	4	1	0.289880
2	5	4	2	0.384419
2	5	5	1	0.384103
2	5	5	2	0.660973
2	3	1	1	0.576712
2	3	1	2	1.327989
2	3	2	1	0.272696
2	3	2	2	0.341388
2	3	3	1	0.304119
2	3	3	2	0.375426
2	3	4	1	0.289880
2	3	4	2	0.384419
2	3	5	1	0.526181
2	3	5	2	1.144518
2	9	1	1	0.471770
2	9	1	2	0.952865
2	9	2	1	0.247870
2	9	2	2	0.289292
2	9	3	1	0.250401
2	9	3	2	0.298951
2	9	4	1	0.251580
2	9	4	2	0.295478
2	9	5	1	0.402749
2	9	5	2	0.720940
2	6	1	1	0.449973
2	6	1	2	0.878115
2	6	2	1	0.275847
2	6	2	2	0.348998
2	6	3	1	0.456768
2	6	3	2	0.513825
2	6	4	1	0.293733
2	6	4	2	0.394518
2	6	5	1	0.435957
2	6	5	2	0.830744
2	4	1	1	0.551002
2	4	1	2	1.234039
2	4	2	1	0.293733
2	4	2	2	0.394518
2	4	3	1	0.340328
2	4	3	2	0.413505
2	4	4	1	0.246353
2	4	4	2	0.289331
2	4	5	1	0.366437
2	4	5	2	0.605446
3	8	1	1	0.390210
3	8	1	2	0.680469
3	8	2	1	0.264155
3	8	2	2	0.321560
3	8	3	1	0.250401
3	8	3	2	0.298951
3	8	4	1	0.264155
3	8	4	2	0.321560
3	8	5	1	0.479240
3	8	5	2	0.978767
3	5	1	1	0.396426
3	5	1	2	0.700458
3	5	2	1	0.247069
3	5	2	2	0.288257
3	5	3	1	0.314502
3	5	3	2	0.386980
3	5	4	1	0.248870
3	5	4	2	0.295725
3	5	5	1	0.502258
3	5	5	2	1.059427
3	9	1	1	0.576712
3	9	1	2	1.327989
3	9	2	1	0.279143
3	9	2	2	0.357106
3	9	3	1	0.456768
3	9	3	2	0.513825
3	9	4	1	0.253223
3	9	4	2	0.298561
3	9	5	1	0.402749
3	9	5	2	0.720940
3	2	1	1	0.471770
3	2	1	2	0.952865
3	2	2	1	0.264155
3	2	2	2	0.321560
3	2	3	1	0.304119
3	2	3	2	0.375426
3	2	4	1	0.247870
3	2	4	2	0.289292
3	2	5	1	0.396426
3	2	5	2	0.700458
3	10	1	1	0.366437
3	10	1	2	0.605446
3	10	2	1	0.301833
3	10	2	2	0.416205
3	10	3	1	0.248870
3	10	3	2	0.295725
3	10	4	1	0.259262
3	10	4	2	0.310848
3	10	5	1	0.494484
3	10	5	2	1.032048
3	7	1	1	0.457136
3	7	1	2	0.902539
3	7	2	1	0.251580
3	7	2	2	0.295478
3	7	3	1	0.356456
3	7	3	2	0.428864
3	7	4	1	0.306076
3	7	4	2	0.427793
3	7	5	1	0.568043
3	7	5	2	1.296180
3	1	1	1	0.409180
3	1	1	2	0.741915
3	1	2	1	0.251580
3	1	2	2	0.295478
3	1	3	1	0.295088
3	1	3	2	0.364835
3	1	4	1	0.246131
3	1	4	2	0.288274
3	1	5	1	0.390210
3	1	5	2	0.680469
3	4	1	1	0.457136
3	4	1	2	0.902539
3	4	2	1	0.247702
3	4	2	2	0.293050
3	4	3	1	0.295088
3	4	3	2	0.364835
3	4	4	1	0.261626
3	4	4	2	0.315953
3	4	5	1	0.396426
3	4	5	2	0.700458
3	6	1	1	0.378104
3	6	1	2	0.641971
3	6	2	1	0.253223
3	6	2	2	0.298561
3	6	3	1	0.314502
3	6	3	2	0.386980
3	6	4	1	0.275847
3	6	4	2	0.348998
3	6	5	1	0.534355
3	6	5	2	1.173866
4	6	1	1	0.486811
4	6	1	2	1.005161
4	6	2	1	0.259262
4	6	2	2	0.310848
4	6	3	1	0.304119
4	6	3	2	0.375426
4	6	4	1	0.248870
4	6	4	2	0.295725
4	6	5	1	0.526181
4	6	5	2	1.144518
4	9	1	1	0.551002
4	9	1	2	1.234039
4	9	2	1	0.253223
4	9	2	2	0.298561
4	9	3	1	0.326472
4	9	3	2	0.399619
4	9	4	1	0.297717
4	9	4	2	0.405114
4	9	5	1	0.372215
4	9	5	2	0.623462
4	1	1	1	0.378104
4	1	1	2	0.641971
4	1	2	1	0.279143
4	1	2	2	0.357106
4	1	3	1	0.254672
4	1	3	2	0.307099
4	1	4	1	0.250135
4	1	4	2	0.292905
4	1	5	1	0.502258
4	1	5	2	1.059427
4	10	1	1	0.526181
4	10	1	2	1.144518
4	10	2	1	0.250135
4	10	2	2	0.292905
4	10	3	1	0.397708
4	10	3	2	0.465383
4	10	4	1	0.286163
4	10	4	2	0.374817
4	10	5	1	0.415716
4	10	5	2	0.763383
4	7	1	1	0.551002
4	7	1	2	1.234039
4	7	2	1	0.257070
4	7	2	2	0.306247
4	7	3	1	0.248870
4	7	3	2	0.295725
4	7	4	1	0.251580
4	7	4	2	0.295478
4	7	5	1	0.534355
4	7	5	2	1.173866
4	2	1	1	0.542629
4	2	1	2	1.203706
4	2	2	1	0.279143
4	2	2	2	0.357106
4	2	3	1	0.356456
4	2	3	2	0.428864
4	2	4	1	0.269695
4	2	4	2	0.334278
4	2	5	1	0.435957
4	2	5	2	0.830744
4	3	1	1	0.534355
4	3	1	2	1.173866
4	3	2	1	0.293733
4	3	2	2	0.394518
4	3	3	1	0.274382
4	3	3	2	0.338023
4	3	4	1	0.301833
4	3	4	2	0.416205
4	3	5	1	0.471770
4	3	5	2	0.952865
4	8	1	1	0.442913
4	8	1	2	0.854183
4	8	2	1	0.246131
4	8	2	2	0.288274
4	8	3	1	0.254672
4	8	3	2	0.307099
4	8	4	1	0.266846
4	8	4	2	0.327669
4	8	5	1	0.360770
4	8	5	2	0.587924
4	5	1	1	0.486811
4	5	1	2	1.005161
4	5	2	1	0.253223
4	5	2	2	0.298561
4	5	3	1	0.257483
4	5	3	2	0.312044
4	5	4	1	0.253223
4	5	4	2	0.298561
4	5	5	1	0.422358
4	5	5	2	0.785344
5	8	1	1	0.551002
5	8	1	2	1.234039
5	8	2	1	0.306076
5	8	2	2	0.427793
5	8	3	1	0.269185
5	8	3	2	0.330552
5	8	4	1	0.250135
5	8	4	2	0.292905
5	8	5	1	0.415716
5	8	5	2	0.763383
5	3	1	1	0.366437
5	3	1	2	0.605446
5	3	2	1	0.248895
5	3	2	2	0.290842
5	3	3	1	0.456768
5	3	3	2	0.513825
5	3	4	1	0.279143
5	3	4	2	0.357106
5	3	5	1	0.486811
5	3	5	2	1.005161
5	9	1	1	0.435957
5	9	1	2	0.830744
5	9	2	1	0.293733
5	9	2	2	0.394518
5	9	3	1	0.260803
5	9	3	2	0.317588
5	9	4	1	0.286163
5	9	4	2	0.374817
5	9	5	1	0.360770
5	9	5	2	0.587924
5	2	1	1	0.422358
5	2	1	2	0.785344
5	2	2	1	0.255055
5	2	2	2	0.302151
5	2	3	1	0.257483
5	2	3	2	0.312044
5	2	4	1	0.253223
5	2	4	2	0.298561
5	2	5	1	0.384103
5	2	5	2	0.660973
5	10	1	1	0.442913
5	10	1	2	0.854183
5	10	2	1	0.246870
5	10	2	2	0.290921
5	10	3	1	0.424417
5	10	3	2	0.487653
5	10	4	1	0.282583
5	10	4	2	0.365713
5	10	5	1	0.494484
5	10	5	2	1.032048
5	7	1	1	0.502258
5	7	1	2	1.059427
5	7	2	1	0.264155
5	7	2	2	0.321560
5	7	3	1	0.250401
5	7	3	2	0.298951
5	7	4	1	0.246504
5	7	4	2	0.287741
5	7	5	1	0.457136
5	7	5	2	0.902539
5	1	1	1	0.449973
5	1	1	2	0.878115
5	1	2	1	0.246353
5	1	2	2	0.289331
5	1	3	1	0.254672
5	1	3	2	0.307099
5	1	4	1	0.289880
5	1	4	2	0.384419
5	1	5	1	0.542629
5	1	5	2	1.203706
5	4	1	1	0.378104
5	4	1	2	0.641971
5	4	2	1	0.266846
5	4	2	2	0.327669
5	4	3	1	0.314502
5	4	3	2	0.386980
5	4	4	1	0.297717
5	4	4	2	0.405114
5	4	5	1	0.576712
5	4	5	2	1.327989
5	6	1	1	0.502258
5	6	1	2	1.059427
5	6	2	1	0.248870
5	6	2	2	0.295725
5	6	3	1	0.274382
5	6	3	2	0.338023
5	6	4	1	0.246131
5	6	4	2	0.288274
5	6	5	1	0.479240
5	6	5	2	0.978767
6	1	1	1	0.429105
6	1	1	2	0.807797
6	1	2	1	0.255055
6	1	2	2	0.302151
6	1	3	1	0.264683
6	1	3	2	0.323750
6	1	4	1	0.282583
6	1	4	2	0.365713
6	1	5	1	0.568043
6	1	5	2	1.296180
6	4	1	1	0.435957
6	4	1	2	0.830744
6	4	2	1	0.247069
6	4	2	2	0.288257
6	4	3	1	0.356456
6	4	3	2	0.428864
6	4	4	1	0.301833
6	4	4	2	0.416205
6	4	5	1	0.559473
6	4	5	2	1.264864
6	10	1	1	0.494484
6	10	1	2	1.032048
6	10	2	1	0.306076
6	10	2	2	0.427793
6	10	3	1	0.397708
6	10	3	2	0.465383
6	10	4	1	0.246187
6	10	4	2	0.287745
6	10	5	1	0.384103
6	10	5	2	0.660973
6	7	1	1	0.378104
6	7	1	2	0.641971
6	7	2	1	0.293733
6	7	2	2	0.394518
6	7	3	1	0.248870
6	7	3	2	0.295725
6	7	4	1	0.301833
6	7	4	2	0.416205
6	7	5	1	0.518107
6	7	5	2	1.115662
6	9	1	1	0.576712
6	9	1	2	1.327989
6	9	2	1	0.246131
6	9	2	2	0.288274
6	9	3	1	0.252324
6	9	3	2	0.302739
6	9	4	1	0.275847
6	9	4	2	0.348998
6	9	5	1	0.471770
6	9	5	2	0.952865
6	2	1	1	0.390210
6	2	1	2	0.680469
6	2	2	1	0.259262
6	2	2	2	0.310848
6	2	3	1	0.456768
6	2	3	2	0.513825
6	2	4	1	0.253223
6	2	4	2	0.298561
6	2	5	1	0.378104
6	2	5	2	0.641971
6	8	1	1	0.494484
6	8	1	2	1.032048
6	8	2	1	0.246870
6	8	2	2	0.290921
6	8	3	1	0.254672
6	8	3	2	0.307099
6	8	4	1	0.301833
6	8	4	2	0.416205
6	8	5	1	0.429105
6	8	5	2	0.807797
6	3	1	1	0.559473
6	3	1	2	1.264864
6	3	2	1	0.266846
6	3	2	2	0.327669
6	3	3	1	0.397708
6	3	3	2	0.465383
6	3	4	1	0.246187
6	3	4	2	0.287745
6	3	5	1	0.402749
6	3	5	2	0.720940
6	5	1	1	0.559473
6	5	1	2	1.264864
6	5	2	1	0.253223
6	5	2	2	0.298561
6	5	3	1	0.397708
6	5	3	2	0.465383
6	5	4	1	0.255055
6	5	4	2	0.302151
6	5	5	1	0.542629
6	5	5	2	1.203706
7	10	1	1	0.442913
7	10	1	2	0.854183
7	10	2	1	0.247702
7	10	2	2	0.293050
7	10	3	1	0.269185
7	10	3	2	0.330552
7	10	4	1	0.289880
7	10	4	2	0.384419
7	10	5	1	0.486811
7	10	5	2	1.005161
7	1	1	1	0.471770
7	1	1	2	0.952865
7	1	2	1	0.259262
7	1	2	2	0.310848
7	1	3	1	0.340328
7	1	3	2	0.413505
7	1	4	1	0.247702
7	1	4	2	0.293050
7	1	5	1	0.464402
7	1	5	2	0.927456
7	2	1	1	0.384103
7	2	1	2	0.660973
7	2	2	1	0.272696
7	2	2	2	0.341388
7	2	3	1	0.456768
7	2	3	2	0.513825
7	2	4	1	0.306076
7	2	4	2	0.427793
7	2	5	1	0.510132
7	2	5	2	1.087298
7	6	1	1	0.502258
7	6	1	2	1.059427
7	6	2	1	0.248870
7	6	2	2	0.295725
7	6	3	1	0.274382
7	6	3	2	0.338023
7	6	4	1	0.257070
7	6	4	2	0.306247
7	6	5	1	0.449973
7	6	5	2	0.878115
7	4	1	1	0.422358
7	4	1	2	0.785344
7	4	2	1	0.248895
7	4	2	2	0.290842
7	4	3	1	0.356456
7	4	3	2	0.428864
7	4	4	1	0.279143
7	4	4	2	0.357106
7	4	5	1	0.559473
7	4	5	2	1.264864
7	9	1	1	0.384103
7	9	1	2	0.660973
7	9	2	1	0.248895
7	9	2	2	0.290842
7	9	3	1	0.264683
7	9	3	2	0.323750
7	9	4	1	0.257070
7	9	4	2	0.306247
7	9	5	1	0.494484
7	9	5	2	1.032048
7	8	1	1	0.486811
7	8	1	2	1.005161
7	8	2	1	0.253223
7	8	2	2	0.298561
7	8	3	1	0.304119
7	8	3	2	0.375426
7	8	4	1	0.248870
7	8	4	2	0.295725
7	8	5	1	0.449973
7	8	5	2	0.878115
7	3	1	1	0.534355
7	3	1	2	1.173866
7	3	2	1	0.246504
7	3	2	2	0.287741
7	3	3	1	0.257483
7	3	3	2	0.312044
7	3	4	1	0.301833
7	3	4	2	0.416205
7	3	5	1	0.384103
7	3	5	2	0.660973
7	5	1	1	0.449973
7	5	1	2	0.878115
7	5	2	1	0.259262
7	5	2	2	0.310848
7	5	3	1	0.250401
7	5	3	2	0.298951
7	5	4	1	0.297717
7	5	4	2	0.405114
7	5	5	1	0.502258
7	5	5	2	1.059427
8	5	1	1	0.360770
8	5	1	2	0.587924
8	5	2	1	0.247702
8	5	2	2	0.293050
8	5	3	1	0.254672
8	5	3	2	0.307099
8	5	4	1	0.282583
8	5	4	2	0.365713
8	5	5	1	0.402749
8	5	5	2	0.720940
8	3	1	1	0.422358
8	3	1	2	0.785344
8	3	2	1	0.248895
8	3	2	2	0.290842
8	3	3	1	0.340328
8	3	3	2	0.413505
8	3	4	1	0.293733
8	3	4	2	0.394518
8	3	5	1	0.360770
8	3	5	2	0.587924
8	9	1	1	0.471770
8	9	1	2	0.952865
8	9	2	1	0.297717
8	9	2	2	0.405114
8	9	3	1	0.250401
8	9	3	2	0.298951
8	9	4	1	0.248870
8	9	4	2	0.295725
8	9	5	1	0.510132
8	9	5	2	1.087298
8	2	1	1	0.568043
8	2	1	2	1.296180
8	2	2	1	0.272696
8	2	2	2	0.341388
8	2	3	1	0.295088
8	2	3	2	0.364835
8	2	4	1	0.301833
8	2	4	2	0.416205
8	2	5	1	0.457136
8	2	5	2	0.902539
8	10	1	1	0.449973
8	10	1	2	0.878115
8	10	2	1	0.251580
8	10	2	2	0.295478
8	10	3	1	0.397708
8	10	3	2	0.465383
8	10	4	1	0.259262
8	10	4	2	0.310848
8	10	5	1	0.471770
8	10	5	2	0.952865
8	7	1	1	0.435957
8	7	1	2	0.830744
8	7	2	1	0.275847
8	7	2	2	0.348998
8	7	3	1	0.274382
8	7	3	2	0.338023
8	7	4	1	0.250135
8	7	4	2	0.292905
8	7	5	1	0.542629
8	7	5	2	1.203706
8	1	1	1	0.457136
8	1	1	2	0.902539
8	1	2	1	0.246870
8	1	2	2	0.290921
8	1	3	1	0.264683
8	1	3	2	0.323750
8	1	4	1	0.259262
8	1	4	2	0.310848
8	1	5	1	0.486811
8	1	5	2	1.005161
8	4	1	1	0.542629
8	4	1	2	1.203706
8	4	2	1	0.261626
8	4	2	2	0.315953
8	4	3	1	0.424417
8	4	3	2	0.487653
8	4	4	1	0.266846
8	4	4	2	0.327669
8	4	5	1	0.534355
8	4	5	2	1.173866
8	6	1	1	0.390210
8	6	1	2	0.680469
8	6	2	1	0.289880
8	6	2	2	0.384419
8	6	3	1	0.248870
8	6	3	2	0.295725
8	6	4	1	0.246131
8	6	4	2	0.288274
8	6	5	1	0.542629
8	6	5	2	1.203706
9	3	1	1	0.422358
9	3	1	2	0.785344
9	3	2	1	0.248870
9	3	2	2	0.295725
9	3	3	1	0.254672
9	3	3	2	0.307099
9	3	4	1	0.264155
9	3	4	2	0.321560
9	3	5	1	0.429105
9	3	5	2	0.807797
9	8	1	1	0.542629
9	8	1	2	1.203706
9	8	2	1	0.248895
9	8	2	2	0.290842
9	8	3	1	0.250401
9	8	3	2	0.298951
9	8	4	1	0.306076
9	8	4	2	0.427793
9	8	5	1	0.559473
9	8	5	2	1.264864
9	5	1	1	0.526181
9	5	1	2	1.144518
9	5	2	1	0.266846
9	5	2	2	0.327669
9	5	3	1	0.295088
9	5	3	2	0.364835
9	5	4	1	0.301833
9	5	4	2	0.416205
9	5	5	1	0.502258
9	5	5	2	1.059427
9	4	1	1	0.510132
9	4	1	2	1.087298
9	4	2	1	0.289880
9	4	2	2	0.384419
9	4	3	1	0.375359
9	4	3	2	0.446007
9	4	4	1	0.272696
9	4	4	2	0.341388
9	4	5	1	0.402749
9	4	5	2	0.720940
9	10	1	1	0.471770
9	10	1	2	0.952865
9	10	2	1	0.272696
9	10	2	2	0.341388
9	10	3	1	0.340328
9	10	3	2	0.413505
9	10	4	1	0.247069
9	10	4	2	0.288257
9	10	5	1	0.366437
9	10	5	2	0.605446
9	7	1	1	0.442913
9	7	1	2	0.854183
9	7	2	1	0.269695
9	7	2	2	0.334278
9	7	3	1	0.254672
9	7	3	2	0.307099
9	7	4	1	0.251580
9	7	4	2	0.295478
9	7	5	1	0.442913
9	7	5	2	0.854183
9	6	1	1	0.464402
9	6	1	2	0.927456
9	6	2	1	0.264155
9	6	2	2	0.321560
9	6	3	1	0.340328
9	6	3	2	0.413505
9	6	4	1	0.246187
9	6	4	2	0.287745
9	6	5	1	0.534355
9	6	5	2	1.173866
9	2	1	1	0.457136
9	2	1	2	0.902539
9	2	2	1	0.293733
9	2	2	2	0.394518
9	2	3	1	0.250401
9	2	3	2	0.298951
9	2	4	1	0.264155
9	2	4	2	0.321560
9	2	5	1	0.402749
9	2	5	2	0.720940
9	1	1	1	0.360770
9	1	1	2	0.587924
9	1	2	1	0.293733
9	1	2	2	0.394518
9	1	3	1	0.252324
9	1	3	2	0.302739
9	1	4	1	0.275847
9	1	4	2	0.348998
9	1	5	1	0.479240
9	1	5	2	0.978767
10	7	1	1	0.494484
10	7	1	2	1.032048
10	7	2	1	0.266846
10	7	2	2	0.327669
10	7	3	1	0.295088
10	7	3	2	0.364835
10	7	4	1	0.279143
10	7	4	2	0.357106
10	7	5	1	0.551002
10	7	5	2	1.234039
10	1	1	1	0.502258
10	1	1	2	1.059427
10	1	2	1	0.306076
10	1	2	2	0.427793
10	1	3	1	0.456768
10	1	3	2	0.513825
10	1	4	1	0.246131
10	1	4	2	0.288274
10	1	5	1	0.360770
10	1	5	2	0.587924
10	2	1	1	0.372215
10	2	1	2	0.623462
10	2	2	1	0.266846
10	2	2	2	0.327669
10	2	3	1	0.375359
10	2	3	2	0.446007
10	2	4	1	0.247702
10	2	4	2	0.293050
10	2	5	1	0.396426
10	2	5	2	0.700458
10	6	1	1	0.518107
10	6	1	2	1.115662
10	6	2	1	0.286163
10	6	2	2	0.374817
10	6	3	1	0.274382
10	6	3	2	0.338023
10	6	4	1	0.297717
10	6	4	2	0.405114
10	6	5	1	0.402749
10	6	5	2	0.720940
10	4	1	1	0.442913
10	4	1	2	0.854183
10	4	2	1	0.282583
10	4	2	2	0.365713
10	4	3	1	0.304119
10	4	3	2	0.375426
10	4	4	1	0.264155
10	4	4	2	0.321560
10	4	5	1	0.464402
10	4	5	2	0.927456
10	9	1	1	0.479240
10	9	1	2	0.978767
10	9	2	1	0.246131
10	9	2	2	0.288274
10	9	3	1	0.274382
10	9	3	2	0.338023
10	9	4	1	0.248870
10	9	4	2	0.295725
10	9	5	1	0.402749
10	9	5	2	0.720940
10	8	1	1	0.415716
10	8	1	2	0.763383
10	8	2	1	0.261626
10	8	2	2	0.315953
10	8	3	1	0.250401
10	8	3	2	0.298951
10	8	4	1	0.289880
10	8	4	2	0.384419
10	8	5	1	0.494484
10	8	5	2	1.032048
10	3	1	1	0.378104
10	3	1	2	0.641971
10	3	2	1	0.251580
10	3	2	2	0.295478
10	3	3	1	0.274382
10	3	3	2	0.338023
10	3	4	1	0.286163
10	3	4	2	0.374817
10	3	5	1	0.510132
10	3	5	2	1.087298
10	5	1	1	0.402749
10	5	1	2	0.720940
10	5	2	1	0.246504
10	5	2	2	0.287741
10	5	3	1	0.424417
10	5	3	2	0.487653
10	5	4	1	0.286163
10	5	4	2	0.374817
10	5	5	1	0.486811
10	5	5	2	1.005161
0	7	1	1	0.559473
0	7	1	2	1.264864
0	7	2	1	0.248895
0	7	2	2	0.290842
0	7	3	1	0.264683
0	7	3	2	0.323750
0	7	4	1	0.289880
0	7	4	2	0.384419
0	7	5	1	0.449973
0	7	5	2	0.878115
0	10	1	1	0.442913
0	10	1	2	0.854183
0	10	2	1	0.272696
0	10	2	2	0.341388
0	10	3	1	0.340328
0	10	3	2	0.413505
0	10	4	1	0.286163
0	10	4	2	0.374817
0	10	5	1	0.559473
0	10	5	2	1.264864
0	1	1	1	0.442913
0	1	1	2	0.854183
0	1	2	1	0.246187
0	1	2	2	0.287745
0	1	3	1	0.257483
0	1	3	2	0.312044
0	1	4	1	0.246870
0	1	4	2	0.290921
0	1	5	1	0.366437
0	1	5	2	0.605446
0	2	1	1	0.526181
0	2	1	2	1.144518
0	2	2	1	0.257070
0	2	2	2	0.306247
0	2	3	1	0.257483
0	2	3	2	0.312044
0	2	4	1	0.289880
0	2	4	2	0.384419
0	2	5	1	0.360770
0	2	5	2	0.587924
0	6	1	1	0.568043
0	6	1	2	1.296180
0	6	2	1	0.250135
0	6	2	2	0.292905
0	6	3	1	0.295088
0	6	3	2	0.364835
0	6	4	1	0.246870
0	6	4	2	0.290921
0	6	5	1	0.494484
0	6	5	2	1.032048
0	4	1	1	0.435957
0	4	1	2	0.830744
0	4	2	1	0.246187
0	4	2	2	0.287745
0	4	3	1	0.456768
0	4	3	2	0.513825
0	4	4	1	0.261626
0	4	4	2	0.315953
0	4	5	1	0.396426
0	4	5	2	0.700458
0	9	1	1	0.442913
0	9	1	2	0.854183
0	9	2	1	0.282583
0	9	2	2	0.365713
0	9	3	1	0.280358
0	9	3	2	0.346196
0	9	4	1	0.246187
0	9	4	2	0.287745
0	9	5	1	0.559473
0	9	5	2	1.264864
0	8	1	1	0.442913
0	8	1	2	0.854183
0	8	2	1	0.275847
0	8	2	2	0.348998
0	8	3	1	0.340328
0	8	3	2	0.413505
0	8	4	1	0.259262
0	8	4	2	0.310848
0	8	5	1	0.486811
0	8	5	2	1.005161
0	3	1	1	0.409180
0	3	1	2	0.741915
0	3	2	1	0.301833
0	3	2	2	0.416205
0	3	3	1	0.280358
0	3	3	2	0.346196
0	3	4	1	0.272696
0	3	4	2	0.341388
0	3	5	1	0.378104
0	3	5	2	0.641971
0	5	1	1	0.494484
0	5	1	2	1.032048
0	5	2	1	0.246504
0	5	2	2	0.287741
0	5	3	1	0.356456
0	5	3	2	0.428864
0	5	4	1	0.264155
0	5	4	2	0.321560
0	5	5	1	0.568043
0	5	5	2	1.296180
7	0	1	1	0.568043
7	0	1	2	1.296180
7	0	2	1	0.247702
7	0	2	2	0.293050
7	0	3	1	0.456768
7	0	3	2	0.513825
7	0	4	1	0.255055
7	0	4	2	0.302151
7	0	5	1	0.534355
7	0	5	2	1.173866
10	0	1	1	0.534355
10	0	1	2	1.173866
10	0	2	1	0.259262
10	0	2	2	0.310848
10	0	3	1	0.280358
10	0	3	2	0.346196
10	0	4	1	0.246870
10	0	4	2	0.290921
10	0	5	1	0.372215
10	0	5	2	0.623462
1	0	1	1	0.402749
1	0	1	2	0.720940
1	0	2	1	0.310446
1	0	2	2	0.439877
1	0	3	1	0.304119
1	0	3	2	0.375426
1	0	4	1	0.257070
1	0	4	2	0.306247
1	0	5	1	0.534355
1	0	5	2	1.173866
2	0	1	1	0.526181
2	0	1	2	1.144518
2	0	2	1	0.266846
2	0	2	2	0.327669
2	0	3	1	0.295088
2	0	3	2	0.364835
2	0	4	1	0.266846
2	0	4	2	0.327669
2	0	5	1	0.378104
2	0	5	2	0.641971
6	0	1	1	0.576712
6	0	1	2	1.327989
6	0	2	1	0.248895
6	0	2	2	0.290842
6	0	3	1	0.397708
6	0	3	2	0.465383
6	0	4	1	0.246353
6	0	4	2	0.289331
6	0	5	1	0.435957
6	0	5	2	0.830744
4	0	1	1	0.429105
4	0	1	2	0.807797
4	0	2	1	0.251580
4	0	2	2	0.295478
4	0	3	1	0.456768
4	0	3	2	0.513825
4	0	4	1	0.269695
4	0	4	2	0.334278
4	0	5	1	0.378104
4	0	5	2	0.641971
8	0	1	1	0.526181
8	0	1	2	1.144518
8	0	2	1	0.286163
8	0	2	2	0.374817
8	0	3	1	0.340328
8	0	3	2	0.413505
8	0	4	1	0.246353
8	0	4	2	0.289331
8	0	5	1	0.360770
8	0	5	2	0.587924
9	0	1	1	0.518107
9	0	1	2	1.115662
9	0	2	1	0.247702
9	0	2	2	0.293050
9	0	3	1	0.304119
9	0	3	2	0.375426
9	0	4	1	0.275847
9	0	4	2	0.348998
9	0	5	1	0.415716
9	0	5	2	0.763383
3	0	1	1	0.510132
3	0	1	2	1.087298
3	0	2	1	0.247069
3	0	2	2	0.288257
3	0	3	1	0.295088
3	0	3	2	0.364835
3	0	4	1	0.264155
3	0	4	2	0.321560
3	0	5	1	0.494484
3	0	5	2	1.032048
5	0	1	1	0.471770
5	0	1	2	0.952865
5	0	2	1	0.247702
5	0	2	2	0.293050
5	0	3	1	0.314502
5	0	3	2	0.386980
5	0	4	1	0.289880
5	0	4	2	0.384419
5	0	5	1	0.384103
5	0	5	2	0.660973
;
